% 
% Converted by convert_jobshop2.pl
% 
% original file (la05) from Google or-tools SVN repository
%   or-tools-read-only/data/jobshop/la05
%
%
% This data file is to be used with either of these two MiniZinc models:
%    http://www.hakank.org/minizinc/jobshop.mzn
%    http://www.hakank.org/minizinc/jobshop2.mzn
%


 
% +++++++++++++++++++++++++++++
% instance la05
% +++++++++++++++++++++++++++++
% Lawrence 10x5 instance (Table 3, instance 5); also called (setf5) or (F5)

num_machines = 10;
num_jobs = 5;
max_time = 99999; 

%
% The times for each job.
%
job_times = array2d(1..num_machines, 1..num_jobs,
[
72,87,95,66,60,
5,35,48,39,54,
46,20,21,97,55,
59,19,46,34,37,
23,73,25,24,28,
28,45,5,78,83,
53,71,37,29,12,
12,87,33,55,38,
49,83,40,48,7,
65,17,90,27,23,
]);


%
% The order each job must be done.
%
job_order = array2d(1..num_machines, 1..num_jobs,
[
1,0,4,2,3,
4,3,0,2,1,
1,3,2,0,4,
0,3,4,1,2,
4,2,3,1,0,
3,0,4,1,2,
0,3,1,4,2,
4,2,3,1,0,
2,3,1,0,4,
2,3,0,4,1,
]);
